experiment/data/hgs-res/Vrp-Set-B-n56/Vrp-Set-B-n56-hgs/0.hgs1.vrp
NAME : 0
COMMENT : CVRP Instance
TYPE : CVRP
DIMENSION : 56
EDGE_WEIGHT_TYPE : EUC_2D
CAPACITY : 100
NODE_COORD_SECTION
1	87.0	45.0
2	93.0	41.0
3	75.0	95.0
4	89.0	55.0
5	89.0	19.0
6	21.0	9.0
7	81.0	31.0
8	79.0	25.0
9	30.0	18.0
10	5.0	5.0
11	31.0	21.0
12	84.0	98.0
13	10.0	8.0
14	90.0	58.0
15	24.0	16.0
16	80.0	26.0
17	96.0	42.0
18	28.0	18.0
19	37.0	23.0
20	39.0	27.0
21	78.0	104.0
22	98.0	26.0
23	8.0	12.0
24	10.0	12.0
25	82.0	30.0
26	82.0	38.0
27	94.0	24.0
28	94.0	44.0
29	30.0	16.0
30	84.0	28.0
31	76.0	96.0
32	76.0	102.0
33	98.0	58.0
34	90.0	64.0
35	76.0	96.0
36	100.0	44.0
37	94.0	56.0
38	84.0	26.0
39	6.0	12.0
40	90.0	24.0
41	26.0	12.0
42	84.0	30.0
43	86.0	28.0
44	31.0	27.0
45	24.0	16.0
46	84.0	30.0
47	33.0	19.0
48	90.0	28.0
49	94.0	50.0
50	92.0	60.0
51	8.0	12.0
52	24.0	16.0
53	94.0	42.0
54	82.0	32.0
55	76.0	96.0
56	80.0	100.0
DEMAND_SECTION
1	0
2	10
3	15
4	7
5	25
6	16
7	8
8	15
9	23
10	8
11	2
12	14
13	7
14	15
15	14
16	7
17	14
18	11
19	7
20	6
21	1
22	22
23	26
24	5
25	18
26	18
27	4
28	10
29	3
30	2
31	12
32	6
33	15
34	12
35	5
36	7
37	12
38	24
39	6
40	12
41	5
42	18
43	3
44	7
45	15
46	23
47	20
48	5
49	24
50	6
51	19
52	5
53	10
54	3
55	4
56	5
DEPOT_SECTION
1
-1
EOF
