experiment/data/hgs-res/Vrp-Set-B-n56/Vrp-Set-B-n56-hgs/0.hgs1.log
=========== Algorithm Parameters =================
---- nbGranular        is set to 20
---- mu                is set to 25
---- lambda            is set to 40
---- nbElite           is set to 4
---- nbClose           is set to 5
---- targetFeasible    is set to 0.2
---- seed              is set to 1234
---- nbIter            is set to 20000
---- timeLimit         is set to 0
---- useSwapStar       is set to 1
==================================================
----- READING INSTANCE: baseline_results/cvrp_hgs/Vrp-Set-B-n56/Vrp-Set-B-n56-hgs/0.hgs1.vrp
----- FLEET SIZE WAS NOT SPECIFIED: DEFAULT INITIALIZATION TO 12 VEHICLES
----- INSTANCE SUCCESSFULLY LOADED WITH 55 CLIENTS AND 12 VEHICLES
----- BUILDING INITIAL POPULATION
----- STARTING GENETIC ALGORITHM
It      0      2 | T(s) 0.08 | Feas 55 716.42 721.84 | Inf 60 664.70 670.67 | Div 0.30 0.23 | Feas 0.00 1.00 | Pen 5.68 0.85
It    500    502 | T(s) 0.28 | Feas 65 716.42 718.90 | Inf 54 706.95 708.02 | Div 0.26 0.21 | Feas 0.10 1.00 | Pen 14.13 0.38
It   1000    276 | T(s) 0.45 | Feas 31 712.92 719.59 | Inf 48 698.78 699.63 | Div 0.39 0.20 | Feas 0.54 1.00 | Pen 12.49 0.17
It   1500    776 | T(s) 0.63 | Feas 53 712.92 715.74 | Inf 53 700.03 701.11 | Div 0.29 0.19 | Feas 0.25 1.00 | Pen 12.74 0.10
It   2000   1276 | T(s) 0.81 | Feas 38 712.92 715.37 | Inf 25 701.30 704.45 | Div 0.30 0.29 | Feas 0.23 1.00 | Pen 13.00 0.10
It   2500   1776 | T(s) 0.99 | Feas 27 712.92 716.86 | Inf 50 692.66 695.23 | Div 0.36 0.24 | Feas 0.27 1.00 | Pen 11.27 0.10
It   3000   2276 | T(s) 1.18 | Feas 55 712.92 714.65 | Inf 41 705.28 706.97 | Div 0.26 0.23 | Feas 0.23 1.00 | Pen 13.79 0.10
It   3500   2776 | T(s) 1.36 | Feas 52 712.92 716.06 | Inf 62 706.66 707.38 | Div 0.30 0.19 | Feas 0.13 1.00 | Pen 14.07 0.10
It   4000   3276 | T(s) 1.53 | Feas 45 712.92 714.35 | Inf 43 698.52 699.71 | Div 0.26 0.22 | Feas 0.44 1.00 | Pen 12.44 0.10
It   4500   3776 | T(s) 1.72 | Feas 50 712.92 715.20 | Inf 26 701.04 704.46 | Div 0.29 0.31 | Feas 0.51 1.00 | Pen 12.94 0.10
It   5000   4276 | T(s) 1.90 | Feas 65 712.92 714.76 | Inf 54 703.65 704.74 | Div 0.28 0.19 | Feas 0.21 1.00 | Pen 13.47 0.10
It   5500   4776 | T(s) 2.08 | Feas 56 712.92 716.26 | Inf 45 706.37 708.07 | Div 0.31 0.23 | Feas 0.10 1.00 | Pen 14.01 0.10
It   6000   5276 | T(s) 2.26 | Feas 61 712.92 715.00 | Inf 50 698.27 700.08 | Div 0.28 0.23 | Feas 0.56 1.00 | Pen 12.39 0.10
It   6500   5776 | T(s) 2.43 | Feas 62 712.92 714.15 | Inf 29 691.10 694.50 | Div 0.25 0.29 | Feas 0.34 1.00 | Pen 10.96 0.10
It   7000   6276 | T(s) 2.61 | Feas 65 712.92 713.35 | Inf 65 693.32 693.70 | Div 0.18 0.14 | Feas 0.32 1.00 | Pen 11.40 0.10
It   7500   6776 | T(s) 2.79 | Feas 35 712.92 716.90 | Inf 46 695.62 696.11 | Div 0.35 0.17 | Feas 0.17 1.00 | Pen 11.86 0.10
It   8000   7276 | T(s) 2.96 | Feas 65 712.92 715.45 | Inf 37 698.02 699.64 | Div 0.28 0.24 | Feas 0.16 1.00 | Pen 12.34 0.10
It   8500   7776 | T(s) 3.13 | Feas 49 712.92 714.50 | Inf 58 690.88 692.25 | Div 0.27 0.21 | Feas 0.28 1.00 | Pen 10.91 0.10
It   9000   8276 | T(s) 3.32 | Feas 55 712.92 714.69 | Inf 49 693.08 694.51 | Div 0.26 0.21 | Feas 0.29 1.00 | Pen 11.35 0.10
It   9500   8776 | T(s) 3.50 | Feas 25 712.92 718.69 | Inf 47 694.22 695.57 | Div 0.39 0.22 | Feas 0.17 1.00 | Pen 11.58 0.10
It  10000   9276 | T(s) 3.68 | Feas 48 712.92 715.98 | Inf 54 708.61 709.50 | Div 0.31 0.19 | Feas 0.12 1.00 | Pen 14.46 0.10
It  10500   9776 | T(s) 3.85 | Feas 46 712.92 714.96 | Inf 64 700.25 700.74 | Div 0.28 0.16 | Feas 0.53 1.00 | Pen 12.79 0.10
It  11000  10276 | T(s) 4.04 | Feas 48 712.92 716.50 | Inf 40 702.83 703.45 | Div 0.33 0.19 | Feas 0.13 1.00 | Pen 13.30 0.10
It  11500  10776 | T(s) 4.21 | Feas 48 712.92 715.90 | Inf 28 704.16 707.31 | Div 0.30 0.29 | Feas 0.12 1.00 | Pen 13.57 0.10
It  12000  11276 | T(s) 4.40 | Feas 57 712.92 715.91 | Inf 58 706.90 707.78 | Div 0.29 0.19 | Feas 0.13 1.00 | Pen 14.12 0.10
It  12500  11776 | T(s) 4.57 | Feas 28 712.92 715.92 | Inf 57 698.74 699.41 | Div 0.33 0.18 | Feas 0.51 1.00 | Pen 12.48 0.10
It  13000  12276 | T(s) 4.75 | Feas 25 712.92 716.46 | Inf 61 691.52 692.45 | Div 0.34 0.18 | Feas 0.35 1.00 | Pen 11.04 0.10
It  13500  12776 | T(s) 4.93 | Feas 28 712.92 716.03 | Inf 42 693.75 695.92 | Div 0.35 0.25 | Feas 0.32 1.00 | Pen 11.49 0.10
It  14000  13276 | T(s) 5.11 | Feas 50 712.92 716.21 | Inf 26 708.02 711.45 | Div 0.31 0.32 | Feas 0.15 1.00 | Pen 14.34 0.10
It  14500  13776 | T(s) 5.28 | Feas 49 712.92 715.93 | Inf 57 710.91 711.49 | Div 0.30 0.17 | Feas 0.10 1.00 | Pen 14.92 0.10
It  15000  14276 | T(s) 5.45 | Feas 46 712.92 714.39 | Inf 32 691.29 691.80 | Div 0.26 0.18 | Feas 0.26 1.00 | Pen 10.99 0.10
It  15500  14776 | T(s) 5.63 | Feas 53 712.92 715.01 | Inf 63 703.61 704.48 | Div 0.28 0.19 | Feas 0.21 1.00 | Pen 13.46 0.10
It  16000  15276 | T(s) 5.81 | Feas 32 712.92 714.73 | Inf 30 694.66 697.65 | Div 0.29 0.29 | Feas 0.32 1.00 | Pen 11.67 0.10
It  16500  15776 | T(s) 5.98 | Feas 45 712.92 715.66 | Inf 45 709.15 709.84 | Div 0.30 0.19 | Feas 0.10 1.00 | Pen 14.57 0.10
It  17000  16276 | T(s) 6.16 | Feas 41 712.92 716.92 | Inf 36 712.09 712.94 | Div 0.34 0.20 | Feas 0.14 1.00 | Pen 15.16 0.10
It  17500  16776 | T(s) 6.34 | Feas 63 712.92 714.21 | Inf 25 702.02 705.04 | Div 0.25 0.30 | Feas 0.21 1.00 | Pen 13.14 0.10
It  18000  17276 | T(s) 6.51 | Feas 65 712.92 714.31 | Inf 49 693.28 693.95 | Div 0.25 0.18 | Feas 0.29 1.00 | Pen 11.39 0.10
It  18500  17776 | T(s) 6.69 | Feas 49 712.92 715.65 | Inf 63 695.58 696.10 | Div 0.30 0.16 | Feas 0.47 1.00 | Pen 11.85 0.10
It  19000  18276 | T(s) 6.87 | Feas 26 712.92 718.34 | Inf 59 697.97 699.68 | Div 0.39 0.22 | Feas 0.23 1.00 | Pen 12.33 0.10
It  19500  18776 | T(s) 7.04 | Feas 32 712.92 715.12 | Inf 28 700.46 702.54 | Div 0.31 0.27 | Feas 0.25 1.00 | Pen 12.83 0.10
It  20000  19276 | T(s) 7.22 | Feas 48 712.92 714.83 | Inf 43 693.04 694.84 | Div 0.29 0.24 | Feas 0.37 1.00 | Pen 11.35 0.10
It  20500  19776 | T(s) 7.40 | Feas 58 712.92 715.84 | Inf 26 695.34 698.46 | Div 0.30 0.32 | Feas 0.22 1.00 | Pen 11.80 0.10
----- GENETIC ALGORITHM FINISHED AFTER 20726 ITERATIONS. TIME SPENT: 7.47375
----- WRITING BEST SOLUTION IN : baseline_results/cvrp_hgs/Vrp-Set-B-n56/Vrp-Set-B-n56-hgs/0.hgs1.tour
