experiment/data/hgs-res/Vrp-Set-B-n56/Vrp-Set-B-n56-hgs/0.hgs1.tour
Route #1: 43 23 50 22 38 9 12 5 40
Route #2: 46 8 28 44 14 51 17 10 18
Route #3: 53 6 24 15 7 37 29 41
Route #4: 21 26 4 39 47 42 45
Route #5: 1 52 16 35 27
Route #6: 3 13 49 32 36 48
Route #7: 33 11 55 20 31 54 30 34 2 19 25
Cost 712.916
